SAT
x0: 1
x1: 20
x2: 2
x3: 19
x4: 3
x5: 18
x6: 4
x7: 17
x8: 5
x9: 16
x10: 6
x11: 15
x12: 7
x13: 14
x14: 8
x15: 13
x16: 9
x17: 12
x18: 10
x19: 11
d0: 19
d1: 18
d2: 17
d3: 16
d4: 15
d5: 14
d6: 13
d7: 12
d8: 11
d9: 10
d10: 9
d11: 8
d12: 7
d13: 6
d14: 5
d15: 4
d16: 3
d17: 2
d18: 1
